\ENCODING=ISO-8859-1
\Problem name: 

Maximize
 obj: 26 x(0)(0) + 26 x(0)(1) + 26 x(0)(2) + 26 x(0)(3) + 15 x(1)(0)
      + 15 x(1)(1) + 15 x(1)(2) + 15 x(1)(3) + 28 x(2)(0) + 28 x(2)(1)
      + 28 x(2)(2) + 28 x(2)(3) + 33 x(3)(0) + 33 x(3)(1) + 33 x(3)(2)
      + 33 x(3)(3) + 16 x(4)(0) + 16 x(4)(1) + 16 x(4)(2) + 16 x(4)(3)
      + 31 x(5)(0) + 31 x(5)(1) + 31 x(5)(2) + 31 x(5)(3) + 23 x(6)(0)
      + 23 x(6)(1) + 23 x(6)(2) + 23 x(6)(3) + 38 x(7)(0) + 38 x(7)(1)
      + 38 x(7)(2) + 38 x(7)(3) + 25 x(8)(0) + 25 x(8)(1) + 25 x(8)(2)
      + 25 x(8)(3) + 43 x(9)(0) + 43 x(9)(1) + 43 x(9)(2) + 43 x(9)(3)
Subject To
 c1:  87 x(0)(0) + 59 x(1)(0) + 29 x(2)(0) + 19 x(3)(0) + 42 x(4)(0)
      + 13 x(5)(0) + 69 x(6)(0) + 44 x(7)(0) + 56 x(8)(0) + 37 x(9)(0) <= 194
 c2:  87 x(0)(1) + 59 x(1)(1) + 29 x(2)(1) + 19 x(3)(1) + 42 x(4)(1)
      + 13 x(5)(1) + 69 x(6)(1) + 44 x(7)(1) + 56 x(8)(1) + 37 x(9)(1) <= 108
 c3:  87 x(0)(2) + 59 x(1)(2) + 29 x(2)(2) + 19 x(3)(2) + 42 x(4)(2)
      + 13 x(5)(2) + 69 x(6)(2) + 44 x(7)(2) + 56 x(8)(2) + 37 x(9)(2) <= 147
 c4:  87 x(0)(3) + 59 x(1)(3) + 29 x(2)(3) + 19 x(3)(3) + 42 x(4)(3)
      + 13 x(5)(3) + 69 x(6)(3) + 44 x(7)(3) + 56 x(8)(3) + 37 x(9)(3) <= 181
 c5:  x(0)(0) + x(0)(1) + x(0)(2) + x(0)(3) <= 1
 c6:  x(1)(0) + x(1)(1) + x(1)(2) + x(1)(3) <= 1
 c7:  x(2)(0) + x(2)(1) + x(2)(2) + x(2)(3) <= 1
 c8:  x(3)(0) + x(3)(1) + x(3)(2) + x(3)(3) <= 1
 c9:  x(4)(0) + x(4)(1) + x(4)(2) + x(4)(3) <= 1
 c10: x(5)(0) + x(5)(1) + x(5)(2) + x(5)(3) <= 1
 c11: x(6)(0) + x(6)(1) + x(6)(2) + x(6)(3) <= 1
 c12: x(7)(0) + x(7)(1) + x(7)(2) + x(7)(3) <= 1
 c13: x(8)(0) + x(8)(1) + x(8)(2) + x(8)(3) <= 1
 c14: x(9)(0) + x(9)(1) + x(9)(2) + x(9)(3) <= 1
Bounds
 0 <= x(0)(0) <= 1
 0 <= x(0)(1) <= 1
 0 <= x(0)(2) <= 1
 0 <= x(0)(3) <= 1
 0 <= x(1)(0) <= 1
 0 <= x(1)(1) <= 1
 0 <= x(1)(2) <= 1
 0 <= x(1)(3) <= 1
 0 <= x(2)(0) <= 1
 0 <= x(2)(1) <= 1
 0 <= x(2)(2) <= 1
 0 <= x(2)(3) <= 1
 0 <= x(3)(0) <= 1
 0 <= x(3)(1) <= 1
 0 <= x(3)(2) <= 1
 0 <= x(3)(3) <= 1
 0 <= x(4)(0) <= 1
 0 <= x(4)(1) <= 1
 0 <= x(4)(2) <= 1
 0 <= x(4)(3) <= 1
 0 <= x(5)(0) <= 1
 0 <= x(5)(1) <= 1
 0 <= x(5)(2) <= 1
 0 <= x(5)(3) <= 1
 0 <= x(6)(0) <= 1
 0 <= x(6)(1) <= 1
 0 <= x(6)(2) <= 1
 0 <= x(6)(3) <= 1
 0 <= x(7)(0) <= 1
 0 <= x(7)(1) <= 1
 0 <= x(7)(2) <= 1
 0 <= x(7)(3) <= 1
 0 <= x(8)(0) <= 1
 0 <= x(8)(1) <= 1
 0 <= x(8)(2) <= 1
 0 <= x(8)(3) <= 1
 0 <= x(9)(0) <= 1
 0 <= x(9)(1) <= 1
 0 <= x(9)(2) <= 1
 0 <= x(9)(3) <= 1
Binaries
 x(0)(0)  x(0)(1)  x(0)(2)  x(0)(3)  x(1)(0)  x(1)(1)  x(1)(2)  x(1)(3) 
 x(2)(0)  x(2)(1)  x(2)(2)  x(2)(3)  x(3)(0)  x(3)(1)  x(3)(2)  x(3)(3) 
 x(4)(0)  x(4)(1)  x(4)(2)  x(4)(3)  x(5)(0)  x(5)(1)  x(5)(2)  x(5)(3) 
 x(6)(0)  x(6)(1)  x(6)(2)  x(6)(3)  x(7)(0)  x(7)(1)  x(7)(2)  x(7)(3) 
 x(8)(0)  x(8)(1)  x(8)(2)  x(8)(3)  x(9)(0)  x(9)(1)  x(9)(2)  x(9)(3) 
End
